59 60
81 2 1
70 32 1
72 12 1
66 37 1
25 83 1
99 21 1
77 42 1
50 88 1
92 11 1
67 21 1
91 33 1
72 39 1
75 8 1
78 34 1
78 36 1
87 7 1
100 16 1
46 8 1
73 50 1
14 37 1
99 37 1
89 44 1
64 76 1
71 28 1
72 19 1
90 41 1
87 14 1
64 81 1
87 12 1
99 50 1
71 14 1
33 98 1
75 18 1
22 80 1
99 25 1
74 23 1
10 35 1
70 3 1
100 48 1
68 11 1
77 13 1
68 47 1
73 32 1
70 11 1
90 4 1
75 3 1
91 28 2
81 23 1
76 6 1
84 70 1
81 36 1
99 96 1
70 19 1
77 50 1
79 6 1
91 31 1
11 45 1
72 40 1
86 37 1
100 100 
100 100 
100 100 
100 100 
100 100 
100 100 
100 100 
100 100 
100 100 
100 100 
100 100 
100 100 
100 100 
100 100 
100 100 
100 100 
100 100 
100 100 
100 100 
100 100 
100 100 
100 100 
100 100 
100 100 
100 100 
100 100 
100 100 
100 100 
100 100 
100 100 
100 100 
100 100 
100 100 
100 100 
100 100 
100 100 
100 100 
100 100 
100 100 
100 100 
100 100 
100 100 
100 100 
100 100 
100 100 
100 100 
100 100 
100 100 
100 100 
100 100 
100 100 
100 100 
100 100 
100 100 
100 100 
100 100 
100 100 
100 100 
100 100 
100 100 
